column=6;
row=6;
Board=[|0,4,0,3,0,6|0,0,0,0,0,0|0,0,0,0,4,0|4,0,0,5,0,0|5,0,3,0,0,2|0,2,0,0,6,5|];
horizontal=[|0,0,1,0,1|0,0,0,1,1|0,0,0,0,1|1,0,1,0,1|1,0,1,0,1|1,0,0,0,1|];
vertical=[|0,0,0,1,0,0|0,0,0,0,1,1|0,0,0,1,0,0|1,0,0,1,1,1|0,0,1,0,0,0|];
